sat
(:eliminated-applications 2
 :eliminated-vars         1
 :max-memory              18.04
 :memory                  17.95
 :nlsat-conflicts         1
 :nlsat-propagations      10
 :nlsat-stages            4
 :num-allocs              27489
 :rlimit-count            1314
 :time                    0.00
 :total-time              0.01)
